data;


param d:= 100;
param r:=5;
param p:=0.600000;
param M:=1000;
param U:=
         1         1       -6.565320e-01
         2         1        1.023300e+00
         3         1        1.081522e+00
         4         1       -1.030727e+00
         5         1        1.293273e-02
         6         1        1.039097e+00
         7         1        4.737121e-01
         8         1       -8.337011e-01
         9         1        1.163115e-01
        10         1       -1.306303e-01
        11         1       -7.126612e-01
        12         1        1.316081e+00
        13         1       -1.914708e-01
        14         1       -7.030246e-01
        15         1        7.508247e-01
        16         1        5.931790e-01
        17         1        2.788152e-01
        18         1        1.651006e+00
        19         1       -9.720561e-01
        20         1       -4.220491e-01
        21         1        3.761705e-01
        22         1        1.597713e+00
        23         1        4.057535e-01
        24         1       -1.254456e-01
        25         1        6.255803e-01
        26         1       -6.835444e-01
        27         1       -3.809168e-01
        28         1        1.841549e-01
        29         1        9.334467e-01
        30         1        3.638357e-01
        31         1        2.105277e-01
        32         1       -7.216778e-01
        33         1       -1.298277e+00
        34         1        5.257179e-02
        35         1        2.826851e-01
        36         1       -1.772148e-01
        37         1       -1.048199e+00
        38         1        6.056364e-01
        39         1       -3.106964e-01
        40         1       -6.570206e-01
        41         1       -6.139656e-01
        42         1        5.127113e-01
        43         1        6.810951e-01
        44         1       -1.543364e-01
        45         1        2.184282e+00
        46         1        1.305932e-01
        47         1       -1.089093e+00
        48         1       -1.191444e+00
        49         1        4.552057e-01
        50         1       -9.923507e-01
        51         1       -5.885125e-01
        52         1       -5.198622e-01
        53         1       -1.072212e+00
        54         1        2.964346e-01
        55         1        1.174696e+00
        56         1        8.131661e-01
        57         1       -3.811201e-01
        58         1        3.080100e-01
        59         1       -1.036313e+00
        60         1        7.031996e-01
        61         1       -2.261457e-01
        62         1        1.287624e+00
        63         1       -1.164587e-01
        64         1        6.337929e-01
        65         1       -1.201412e+00
        66         1        1.225231e-01
        67         1        2.777892e+00
        68         1       -1.272653e+00
        69         1       -1.329453e+00
        70         1       -1.050166e+00
        71         1       -2.075448e+00
        72         1        2.470040e-01
        73         1        9.070375e-01
        74         1        1.077390e+00
        75         1        9.031882e-01
        76         1       -1.870238e-01
        77         1        9.369664e-01
        78         1        1.189461e+00
        79         1        2.456898e+00
        80         1        3.444956e-02
        81         1       -1.600344e-01
        82         1        1.380477e+00
        83         1       -1.059447e+00
        84         1        9.809608e-01
        85         1        1.231454e+00
        86         1        1.404076e-01
        87         1       -1.125853e+00
        88         1        1.451697e-01
        89         1       -2.674034e-01
        90         1       -5.813688e-02
        91         1        7.569413e-01
        92         1        1.042956e+00
        93         1        1.695146e-01
        94         1       -2.201585e+00
        95         1        1.529703e-01
        96         1        6.732785e-01
        97         1       -1.505258e+00
        98         1        8.964404e-01
        99         1        7.422577e-01
       100         1       -4.487202e-01
         1         2       -5.708313e-01
         2         2        1.975143e-01
         3         2        5.712573e-01
         4         2        1.619064e+00
         5         2       -2.513647e-01
         6         2        1.153345e+00
         7         2       -1.002433e+00
         8         2        2.764261e+00
         9         2        1.726713e+00
        10         2        6.716277e-02
        11         2       -2.279170e+00
        12         2        1.260331e+00
        13         2        4.621883e-01
        14         2       -1.671140e+00
        15         2       -2.864089e-01
        16         2        4.787432e-01
        17         2       -1.707677e+00
        18         2       -1.126402e+00
        19         2        2.379377e-01
        20         2        5.731130e-01
        21         2        1.941430e+00
        22         2        2.670891e+00
        23         2        7.175370e-01
        24         2        4.181083e-01
        25         2        7.015767e-01
        26         2        1.332157e-02
        27         2        5.335189e-01
        28         2        1.846560e+00
        29         2        2.492298e-01
        30         2       -1.362723e+00
        31         2        8.398651e-01
        32         2       -1.357339e+00
        33         2       -7.054570e-01
        34         2       -1.336674e+00
        35         2       -9.002075e-01
        36         2       -2.317464e-01
        37         2        1.204736e-01
        38         2        1.746010e-01
        39         2       -5.579167e-01
        40         2       -6.851704e-01
        41         2        1.095476e+00
        42         2       -6.945060e-01
        43         2        1.367981e+00
        44         2       -1.118250e+00
        45         2        5.957212e-01
        46         2        9.819971e-01
        47         2        8.111552e-01
        48         2        1.413952e+00
        49         2       -9.392857e-01
        50         2       -1.705936e-01
        51         2        5.294170e-01
        52         2       -7.307921e-01
        53         2        2.679190e+00
        54         2        5.983997e-01
        55         2        6.317935e-01
        56         2        1.058357e+00
        57         2       -1.920410e-01
        58         2        7.509107e-01
        59         2       -1.063149e-01
        60         2       -1.147580e-02
        61         2       -1.189181e+00
        62         2        7.131285e-01
        63         2       -9.565927e-01
        64         2       -1.281581e+00
        65         2       -1.330172e+00
        66         2        1.507893e+00
        67         2        2.085658e-01
        68         2       -1.023923e+00
        69         2        4.304553e-01
        70         2        1.235172e+00
        71         2       -6.213992e-02
        72         2       -2.534525e-01
        73         2       -5.147335e-01
        74         2        2.954669e-01
        75         2       -2.777050e-01
        76         2        5.401099e-01
        77         2        8.761982e-01
        78         2       -1.634869e+00
        79         2       -1.902768e+00
        80         2       -2.087402e-02
        81         2        1.044002e+00
        82         2       -1.201032e+00
        83         2        8.209688e-01
        84         2        1.406500e+00
        85         2        7.642588e-01
        86         2       -2.034781e-01
        87         2        1.544826e+00
        88         2        1.573201e+00
        89         2        9.951964e-01
        90         2       -1.720884e+00
        91         2       -4.520270e-01
        92         2        2.094789e+00
        93         2        8.266329e-01
        94         2        7.814315e-01
        95         2        1.245054e+00
        96         2        4.305327e-01
        97         2       -1.396690e-01
        98         2       -2.975844e-01
        99         2        9.750052e-02
       100         2        7.856796e-01
         1         3        1.956597e-01
         2         3        6.873727e-01
         3         3        1.212831e+00
         4         3        8.374852e-01
         5         3       -1.978200e-01
         6         3       -2.964756e-02
         7         3        5.333742e-01
         8         3        2.491328e-01
         9         3        1.716290e+00
        10         3       -7.850384e-01
        11         3        5.398742e-01
        12         3       -8.623364e-01
        13         3        1.345861e+00
        14         3       -2.777842e-01
        15         3       -4.033856e-01
        16         3        5.977533e-01
        17         3        1.494903e+00
        18         3       -1.965236e-01
        19         3        1.952575e+00
        20         3       -2.114635e+00
        21         3        4.499103e-01
        22         3        5.192545e-01
        23         3        2.443702e-01
        24         3        4.948285e-01
        25         3       -8.106891e-01
        26         3       -2.029985e+00
        27         3        1.085213e+00
        28         3       -6.548696e-01
        29         3       -8.318813e-01
        30         3        1.259210e+00
        31         3       -1.009244e+00
        32         3        7.314699e-01
        33         3        1.748504e+00
        34         3        7.473834e-02
        35         3        2.815637e-01
        36         3        7.174561e-01
        37         3        1.145116e-01
        38         3       -1.118415e+00
        39         3        1.601296e+00
        40         3       -3.706924e-01
        41         3       -9.567802e-01
        42         3        2.418886e-01
        43         3        7.891102e-01
        44         3        4.831189e-01
        45         3       -1.211281e+00
        46         3        1.756645e-01
        47         3        9.757113e-01
        48         3        1.991949e-02
        49         3        5.135802e-01
        50         3        4.956700e-01
        51         3        1.467684e+00
        52         3        3.497792e-01
        53         3       -3.109162e-01
        54         3       -9.711691e-01
        55         3       -1.491094e-01
        56         3       -2.021773e+00
        57         3        4.535892e-01
        58         3       -4.107474e-01
        59         3       -8.344864e-01
        60         3       -2.698535e+00
        61         3       -1.584957e+00
        62         3       -5.811323e-01
        63         3       -1.350717e+00
        64         3        9.211489e-01
        65         3       -5.508379e-01
        66         3       -1.930209e+00
        67         3        1.043443e+00
        68         3        3.438097e-01
        69         3       -2.736462e-01
        70         3       -2.268844e+00
        71         3       -4.257241e-01
        72         3       -6.100467e-01
        73         3        4.638323e-01
        74         3       -8.294963e-01
        75         3        4.178324e-01
        76         3       -4.977287e-01
        77         3       -1.011754e+00
        78         3        1.729225e-02
        79         3        9.395339e-02
        80         3       -1.691744e+00
        81         3       -7.027489e-01
        82         3       -1.018443e+00
        83         3       -2.659298e-01
        84         3        1.035904e+00
        85         3       -3.282042e-01
        86         3        1.602362e-01
        87         3        2.061076e-02
        88         3        1.280842e-01
        89         3        8.165895e-01
        90         3        5.129879e-01
        91         3        4.906398e-01
        92         3       -1.148448e+00
        93         3       -7.386374e-02
        94         3        6.793525e-01
        95         3       -2.474902e+00
        96         3       -1.062270e+00
        97         3       -2.053231e+00
        98         3        3.057184e-01
        99         3       -1.596007e+00
       100         3       -1.812209e+00
         1         4        1.730296e-01
         2         4        9.589134e-01
         3         4        4.487371e-02
         4         4       -8.263122e-01
         5         4       -4.942991e-01
         6         4       -2.230854e+00
         7         4       -4.041529e-01
         8         4       -4.594219e-01
         9         4        1.930120e+00
        10         4       -3.795032e-01
        11         4       -4.460053e-01
        12         4        1.563754e+00
        13         4       -1.553022e-01
        14         4       -1.460057e+00
        15         4       -1.166812e+00
        16         4        5.122793e-01
        17         4        1.147711e+00
        18         4       -2.906152e-03
        19         4       -6.794982e-01
        20         4        1.075730e+00
        21         4       -2.234751e-01
        22         4       -9.367451e-01
        23         4        2.319297e+00
        24         4        6.143855e-01
        25         4       -8.113473e-01
        26         4       -4.815290e-01
        27         4       -4.805035e-01
        28         4        6.436971e-01
        29         4       -8.114738e-01
        30         4       -3.322557e+00
        31         4        6.902067e-01
        32         4       -9.986563e-01
        33         4        2.525968e-01
        34         4        6.933760e-01
        35         4       -2.959802e-01
        36         4       -2.039190e+00
        37         4        1.780653e-01
        38         4       -6.257583e-02
        39         4        2.920954e-01
        40         4        5.645308e-01
        41         4       -9.703051e-01
        42         4        1.782059e-01
        43         4       -4.034661e-01
        44         4        2.029085e-01
        45         4       -1.064376e+00
        46         4        8.588897e-02
        47         4        2.707270e-01
        48         4       -4.210637e-01
        49         4        4.719510e-01
        50         4        6.408535e-01
        51         4       -1.121716e+00
        52         4       -1.077486e-01
        53         4        1.283816e-01
        54         4       -4.100496e-01
        55         4        1.618365e+00
        56         4        1.371868e-01
        57         4        1.325859e+00
        58         4       -2.751814e-01
        59         4       -6.114742e-02
        60         4        4.018443e-01
        61         4       -6.753784e-01
        62         4       -6.106943e-02
        63         4        1.079734e+00
        64         4        6.831025e-01
        65         4        5.509464e-02
        66         4        8.899253e-01
        67         4       -7.618988e-01
        68         4        1.185328e+00
        69         4       -1.329228e+00
        70         4        7.959510e-02
        71         4       -1.406528e+00
        72         4        9.682738e-01
        73         4       -5.994487e-01
        74         4       -2.124785e-01
        75         4        1.220192e+00
        76         4       -7.123884e-01
        77         4        1.862607e-01
        78         4       -4.274591e-01
        79         4        1.306425e+00
        80         4        4.805295e-01
        81         4        6.005061e-01
        82         4        1.428375e-01
        83         4        3.418394e-01
        84         4       -1.051492e+00
        85         4        1.903958e+00
        86         4       -1.629295e+00
        87         4        8.576027e-01
        88         4        1.457442e+00
        89         4       -1.361933e+00
        90         4       -4.509712e-01
        91         4       -2.743913e-01
        92         4       -1.982341e+00
        93         4       -1.117785e-01
        94         4        1.315324e-01
        95         4        7.368006e-01
        96         4       -9.562882e-01
        97         4       -3.921287e-02
        98         4       -5.410391e-01
        99         4       -1.093409e+00
       100         4        7.929997e-02
         1         5        1.120683e+00
         2         5       -1.168623e+00
         3         5        4.562934e-01
         4         5        2.221572e+00
         5         5       -1.785851e+00
         6         5       -5.385305e-01
         7         5        2.787543e+00
         8         5        4.577505e-01
         9         5       -1.212734e+00
        10         5        1.073641e+00
        11         5       -1.803039e+00
        12         5       -3.486001e-01
        13         5        3.616171e-01
        14         5        1.110469e+00
        15         5        1.352643e+00
        16         5       -1.361951e+00
        17         5       -2.974589e-01
        18         5        7.553750e-01
        19         5        1.575921e+00
        20         5       -4.958285e-01
        21         5       -9.522441e-01
        22         5       -2.471172e-01
        23         5        8.787353e-01
        24         5        4.999951e-01
        25         5        1.934850e+00
        26         5       -1.199490e+00
        27         5       -2.051823e+00
        28         5        5.779771e-01
        29         5       -3.046863e-01
        30         5        1.513349e+00
        31         5       -3.382981e-01
        32         5        7.230813e-01
        33         5       -1.808315e-01
        34         5       -1.710676e+00
        35         5        3.015078e-01
        36         5        6.547700e-01
        37         5       -5.919049e-02
        38         5       -1.308297e+00
        39         5       -1.144984e+00
        40         5        3.140182e+00
        41         5        7.619972e-01
        42         5        1.060486e+00
        43         5        1.646922e+00
        44         5       -2.701015e-01
        45         5       -1.059541e+00
        46         5        1.553313e+00
        47         5       -1.531145e+00
        48         5        6.884930e-01
        49         5        1.084719e+00
        50         5        5.132155e-01
        51         5       -1.470159e-01
        52         5        1.249995e+00
        53         5       -1.604970e-02
        54         5       -2.223211e+00
        55         5       -1.106485e+00
        56         5        8.134910e-01
        57         5       -1.400251e+00
        58         5        3.624541e-01
        59         5       -9.674341e-01
        60         5        1.533664e+00
        61         5       -1.112965e+00
        62         5        3.057599e-02
        63         5       -9.164608e-01
        64         5        2.853883e-01
        65         5        1.892520e-02
        66         5        6.781938e-01
        67         5       -3.526825e-01
        68         5        1.119337e-01
        69         5       -1.051458e+00
        70         5        2.216946e-03
        71         5       -6.573115e-01
        72         5       -1.981301e-01
        73         5        2.620244e-01
        74         5       -1.248839e+00
        75         5       -5.125247e-01
        76         5       -1.192385e-01
        77         5        2.249858e-01
        78         5        3.045809e-01
        79         5       -7.873788e-01
        80         5        3.039859e-01
        81         5        3.325599e-01
        82         5        1.073627e-01
        83         5       -7.772969e-01
        84         5        2.015935e-01
        85         5        1.296321e+00
        86         5        1.264248e+00
        87         5        1.465542e+00
        88         5        1.063465e+00
        89         5        1.113632e+00
        90         5       -6.580261e-01
        91         5        2.251711e-01
        92         5       -3.206254e-01
        93         5        1.471134e+00
        94         5       -5.917887e-01
        95         5        2.301665e-01
        96         5       -3.880316e-01
        97         5        1.083378e+00
        98         5        2.998805e-01
        99         5       -6.498164e-01
       100         5       -1.115213e+00
;

param theta:=
    1       -5.380071e-01
    2       -2.798419e-01
    3       -2.300891e-01
    4       -1.119932e+00
    5        2.771446e+00
;
param X_true:=
    1        3.380074e+00
    2       -5.076667e+00
    3        1.935499e-01
    4        6.991142e+00
    5       -4.286908e+00
    6        1.309225e-01
    7        8.081087e+00
    8        1.400810e+00
    9       -6.463314e+00
   10        3.632669e+00
   11       -3.600525e+00
   12       -3.579765e+00
   13        8.401353e-01
   14        5.622572e+00
   15        4.824542e+00
   16       -4.938934e+00
   17       -2.125835e+00
   18        1.568915e+00
   19        5.135694e+00
   20       -2.025668e+00
   21       -3.238012e+00
   22       -1.362264e+00
   23       -6.374093e-01
   24        5.342714e-01
   25        5.924620e+00
   26       -1.953941e+00
   27       -5.342447e+00
   28        4.157923e-01
   29       -3.161653e-01
   30        7.811074e+00
   31       -1.826639e+00
   32        3.722213e+00
   33       -2.904688e-01
   34       -5.189003e+00
   35        1.202135e+00
   36        4.093530e+00
   37        1.404126e-01
   38       -3.673157e+00
   39       -3.545543e+00
   40        8.701124e+00
   41        3.442412e+00
   42        2.602355e+00
   43        4.085393e+00
   44       -6.910088e-01
   45       -2.807598e+00
   46        3.823252e+00
   47       -4.412238e+00
   48        2.620423e+00
   49        2.377466e+00
   50        1.172220e+00
   51        6.795711e-01
   52        3.988679e+00
   53       -2.896129e-01
   54       -5.805768e+00
   55       -5.653510e+00
   56        1.832433e+00
   57       -5.211173e+00
   58        1.031367e+00
   59       -1.833410e+00
   60        4.046218e+00
   61       -1.509014e+00
   62       -6.054685e-01
   63       -3.108014e+00
   64       -1.683815e-01
   65        1.136096e+00
   66        8.391520e-01
   67       -1.917142e+00
   68       -1.251427e-01
   69       -7.676570e-01
   70        6.583832e-01
   71        9.854618e-01
   72       -1.555106e+00
   73        9.468570e-01
   74       -3.694598e+00
   75       -3.291313e+00
   76        5.313602e-01
   77       -1.015614e-01
   78        1.136443e+00
   79       -4.456257e+00
   80        6.808794e-01
   81        2.047849e-01
   82       -3.469288e-02
   83       -2.135637e+00
   84        5.765932e-01
   85        6.594944e-01
   86        5.273028e+00
   87        3.269882e+00
   88        7.672799e-01
   89        4.289122e+00
   90       -9.238064e-01
   91        5.377147e-01
   92        4.484090e-01
   93        3.896822e+00
   94       -9.779382e-01
   95       -4.854220e-02
   96       -2.427240e-01
   97        4.367790e+00
   98        9.676725e-01
   99       -6.357884e-01
  100       -2.741044e+00
;
param X:=
    1        3.380074e+00
    2        5.332629e-01
    3        1.935499e-01
    4        6.991142e+00
    5       -1.355190e+00
    6        7.998115e-01
    7        8.081087e+00
    8        1.400810e+00
    9       -6.463314e+00
   10       -2.242535e+00
   11        5.418811e-01
   12       -5.544457e-01
   13        8.401353e-01
   14        2.345801e-01
   15        4.824542e+00
   16       -9.792585e-01
   17        4.054853e-01
   18       -1.184703e+00
   19       -4.330900e-01
   20        1.033493e+00
   21       -2.893947e-01
   22        7.029289e-01
   23        1.118956e-01
   24       -1.048999e+00
   25       -6.531913e-01
   26       -2.732935e-01
   27       -5.342447e+00
   28        1.859688e+00
   29       -8.396781e-01
   30        7.811074e+00
   31       -1.686960e+00
   32        3.722213e+00
   33       -1.407262e+00
   34       -5.189003e+00
   35        1.202135e+00
   36       -5.529475e-01
   37       -6.763072e-02
   38        3.846883e-01
   39        1.708532e+00
   40        8.701124e+00
   41        3.442412e+00
   42        2.602355e+00
   43        4.085393e+00
   44       -6.910088e-01
   45        1.091357e+00
   46        1.511724e-01
   47       -4.412238e+00
   48       -1.099218e+00
   49       -1.223456e+00
   50        1.172220e+00
   51        7.049347e-01
   52        3.988679e+00
   53       -2.896129e-01
   54        2.136974e+00
   55       -1.286783e+00
   56        1.832433e+00
   57       -5.211173e+00
   58        7.341565e-01
   59       -1.833410e+00
   60        9.208416e-01
   61        1.055767e+00
   62       -6.054685e-01
   63       -3.108014e+00
   64       -3.962502e-01
   65       -8.495233e-01
   66        3.444449e-01
   67        2.924877e+00
   68        3.537732e-01
   69        1.184898e+00
   70        6.583832e-01
   71        9.854618e-01
   72       -9.144213e-01
   73        9.468570e-01
   74       -3.694598e+00
   75        1.888266e-01
   76       -5.828846e-01
   77       -7.023510e-01
   78        1.136443e+00
   79       -4.456257e+00
   80        3.402753e-01
   81        2.047849e-01
   82        1.377461e-01
   83       -8.715579e-01
   84        5.765932e-01
   85        1.322459e+00
   86        6.937216e-01
   87       -1.250566e-01
   88        7.672799e-01
   89        4.289859e-01
   90       -4.225740e-01
   91        5.414981e-01
   92        1.138435e+00
   93        3.896822e+00
   94        2.242359e+00
   95        5.282009e-01
   96        1.686002e+00
   97        5.757496e-01
   98        9.676725e-01
   99       -6.357884e-01
  100       -2.741044e+00
;
param outliervec:=
    1    0
    2    1
    3    0
    4    0
    5    1
    6    1
    7    0
    8    0
    9    0
   10    1
   11    1
   12    1
   13    0
   14    1
   15    0
   16    1
   17    1
   18    1
   19    1
   20    1
   21    1
   22    1
   23    1
   24    1
   25    1
   26    1
   27    0
   28    1
   29    1
   30    0
   31    1
   32    0
   33    1
   34    0
   35    0
   36    1
   37    1
   38    1
   39    1
   40    0
   41    0
   42    0
   43    0
   44    0
   45    1
   46    1
   47    0
   48    1
   49    1
   50    0
   51    1
   52    0
   53    0
   54    1
   55    1
   56    0
   57    0
   58    1
   59    0
   60    1
   61    1
   62    0
   63    0
   64    1
   65    1
   66    1
   67    1
   68    1
   69    1
   70    0
   71    0
   72    1
   73    0
   74    0
   75    1
   76    1
   77    1
   78    0
   79    0
   80    1
   81    0
   82    1
   83    1
   84    0
   85    1
   86    1
   87    1
   88    0
   89    1
   90    1
   91    1
   92    1
   93    0
   94    1
   95    1
   96    1
   97    1
   98    0
   99    0
  100    0
;